# Solution for model refraction_srl_ilp
# Objective value = 4.2054995386255257e+01
Z_129_0_0 0
Z_129_0_1 1
Z_129_0_2 0
Z_129_0_3 0
Z_129_0_4 0
Z_202_0_0 0
Z_202_0_1 1
Z_202_0_2 0
Z_202_0_3 0
Z_202_0_4 0
Z_363_0_0 0
Z_363_0_1 1
Z_363_0_2 0
Z_363_0_3 0
Z_363_0_4 0
Z_363_2_0 0
Z_363_2_1 0
Z_363_2_2 0
Z_363_2_3 0
Z_363_2_4 1
Z_363_1_0 0
Z_363_1_1 0
Z_363_1_2 0
Z_363_1_3 0
Z_363_1_4 1
Z_681_2_0 0
Z_681_2_1 0
Z_681_2_2 0
Z_681_2_3 0
Z_681_2_4 1
Z_681_3_0 0
Z_681_3_1 0
Z_681_3_2 0
Z_681_3_3 0
Z_681_3_4 1
Z_681_1_0 0
Z_681_1_1 0
Z_681_1_2 0
Z_681_1_3 0
Z_681_1_4 1
Z_549_0_0 0
Z_549_0_1 1
Z_549_0_2 0
Z_549_0_3 0
Z_549_0_4 0
Z_329_0_0 0
Z_329_0_1 0
Z_329_0_2 1
Z_329_0_3 0
Z_329_0_4 0
Z_659_0_0 0
Z_659_0_1 1
Z_659_0_2 0
Z_659_0_3 0
Z_659_0_4 0
Z_520_0_0 0
Z_520_0_1 1
Z_520_0_2 0
Z_520_0_3 0
Z_520_0_4 0
Z_617_0_0 0
Z_617_0_1 0
Z_617_0_2 0
Z_617_0_3 0
Z_617_0_4 1
Z_317_0_0 0
Z_317_0_1 1
Z_317_0_2 0
Z_317_0_3 0
Z_317_0_4 0
Z_586_6_0 0
Z_586_6_1 0
Z_586_6_2 0
Z_586_6_3 0
Z_586_6_4 1
Z_586_5_0 0
Z_586_5_1 0
Z_586_5_2 0
Z_586_5_3 0
Z_586_5_4 1
Z_586_4_0 0
Z_586_4_1 0
Z_586_4_2 0
Z_586_4_3 0
Z_586_4_4 1
Z_586_2_0 0
Z_586_2_1 0
Z_586_2_2 0
Z_586_2_3 0
Z_586_2_4 1
Z_586_3_0 0
Z_586_3_1 0
Z_586_3_2 1
Z_586_3_3 0
Z_586_3_4 0
Z_586_7_0 0
Z_586_7_1 0
Z_586_7_2 0
Z_586_7_3 0
Z_586_7_4 1
Z_586_1_0 0
Z_586_1_1 0
Z_586_1_2 0
Z_586_1_3 0
Z_586_1_4 1
Z_230_2_0 0
Z_230_2_1 0
Z_230_2_2 1
Z_230_2_3 0
Z_230_2_4 0
Z_230_15_0 0
Z_230_15_1 0
Z_230_15_2 0
Z_230_15_3 0
Z_230_15_4 1
Z_230_14_0 0
Z_230_14_1 0
Z_230_14_2 0
Z_230_14_3 0
Z_230_14_4 1
Z_230_3_0 0
Z_230_3_1 0
Z_230_3_2 0
Z_230_3_3 0
Z_230_3_4 1
Z_230_1_0 0
Z_230_1_1 0
Z_230_1_2 0
Z_230_1_3 0
Z_230_1_4 1
Z_230_11_0 0
Z_230_11_1 0
Z_230_11_2 0
Z_230_11_3 0
Z_230_11_4 1
Z_230_4_0 0
Z_230_4_1 0
Z_230_4_2 0
Z_230_4_3 0
Z_230_4_4 1
Z_230_7_0 0
Z_230_7_1 1
Z_230_7_2 0
Z_230_7_3 0
Z_230_7_4 0
Z_230_5_0 0
Z_230_5_1 0
Z_230_5_2 0
Z_230_5_3 0
Z_230_5_4 1
Z_230_9_0 0
Z_230_9_1 0
Z_230_9_2 0
Z_230_9_3 0
Z_230_9_4 1
Z_230_6_0 0
Z_230_6_1 0
Z_230_6_2 0
Z_230_6_3 0
Z_230_6_4 1
Z_230_8_0 0
Z_230_8_1 0
Z_230_8_2 0
Z_230_8_3 0
Z_230_8_4 1
Z_230_13_0 0
Z_230_13_1 0
Z_230_13_2 0
Z_230_13_3 0
Z_230_13_4 1
Z_230_12_0 0
Z_230_12_1 0
Z_230_12_2 0
Z_230_12_3 0
Z_230_12_4 1
Z_441_0_0 0
Z_441_0_1 1
Z_441_0_2 0
Z_441_0_3 0
Z_441_0_4 0
Z_441_6_0 0
Z_441_6_1 0
Z_441_6_2 0
Z_441_6_3 0
Z_441_6_4 1
Z_441_4_0 0
Z_441_4_1 0
Z_441_4_2 0
Z_441_4_3 0
Z_441_4_4 1
Z_441_7_0 0
Z_441_7_1 0
Z_441_7_2 0
Z_441_7_3 0
Z_441_7_4 1
Z_441_2_0 0
Z_441_2_1 0
Z_441_2_2 0
Z_441_2_3 0
Z_441_2_4 1
Z_441_3_0 0
Z_441_3_1 0
Z_441_3_2 0
Z_441_3_3 0
Z_441_3_4 1
Z_441_8_0 0
Z_441_8_1 0
Z_441_8_2 0
Z_441_8_3 0
Z_441_8_4 1
Z_441_5_0 0
Z_441_5_1 0
Z_441_5_2 0
Z_441_5_3 0
Z_441_5_4 1
Z_441_1_0 0
Z_441_1_1 0
Z_441_1_2 0
Z_441_1_3 0
Z_441_1_4 1
Z_238_0_0 0
Z_238_0_1 0
Z_238_0_2 1
Z_238_0_3 0
Z_238_0_4 0
Z_721_0_0 0
Z_721_0_1 1
Z_721_0_2 0
Z_721_0_3 0
Z_721_0_4 0
Z_61_0_0 0
Z_61_0_1 1
Z_61_0_2 0
Z_61_0_3 0
Z_61_0_4 0
Z_264_0_0 0
Z_264_0_1 1
Z_264_0_2 0
Z_264_0_3 0
Z_264_0_4 0
Z_706_3_0 0
Z_706_3_1 0
Z_706_3_2 0
Z_706_3_3 0
Z_706_3_4 1
Z_706_2_0 0
Z_706_2_1 0
Z_706_2_2 0
Z_706_2_3 0
Z_706_2_4 1
Z_706_0_0 0
Z_706_0_1 1
Z_706_0_2 0
Z_706_0_3 0
Z_706_0_4 0
Z_706_1_0 0
Z_706_1_1 0
Z_706_1_2 0
Z_706_1_3 0
Z_706_1_4 1
Z_632_7_0 0
Z_632_7_1 0
Z_632_7_2 0
Z_632_7_3 0
Z_632_7_4 1
Z_632_2_0 0
Z_632_2_1 0
Z_632_2_2 0
Z_632_2_3 0
Z_632_2_4 1
Z_632_6_0 0
Z_632_6_1 0
Z_632_6_2 0
Z_632_6_3 0
Z_632_6_4 1
Z_632_1_0 0
Z_632_1_1 0
Z_632_1_2 1
Z_632_1_3 0
Z_632_1_4 0
Z_632_0_0 0
Z_632_0_1 0
Z_632_0_2 0
Z_632_0_3 0
Z_632_0_4 1
Z_632_8_0 0
Z_632_8_1 0
Z_632_8_2 0
Z_632_8_3 0
Z_632_8_4 1
Z_632_3_0 0
Z_632_3_1 0
Z_632_3_2 0
Z_632_3_3 0
Z_632_3_4 1
Z_632_5_0 0
Z_632_5_1 1
Z_632_5_2 0
Z_632_5_3 0
Z_632_5_4 0
Z_632_4_0 0
Z_632_4_1 0
Z_632_4_2 0
Z_632_4_3 0
Z_632_4_4 1
